30 61
29
6 18 24 17
12 2 14 59
10 7 8 0
4 23 20 12
4 1 0 24
7 7 6 17
4 11 9 24
6 5 24 12
2 7 28 54
6 11 0 13
10 19 20 35
5 11 4 24
2 4 3 56
7 5 20 54
2 4 28 8
12 7 18 0
7 13 0 0
6 3 14 32
6 10 7 7
9 16 5 36
1 4 6 13
4 10 0 25
6 24 14 35
9 9 5 52
1 2 7 0
8 5 20 7
3 5 0 56
7 25 13 7
5 21 0 35
